certificates/rado_a15_c115_N45.cnf
c Rad2 upper bound instance: x1 + 15*x2 - x3 = 115, interval [1,45]
p cnf 45 270
1 6 8 0
-1 -6 -8 0
1 9 21 0
-1 -9 -21 0
1 10 36 0
-1 -10 -36 0
2 7 8 0
-2 -7 -8 0
2 9 22 0
-2 -9 -22 0
2 10 37 0
-2 -10 -37 0
3 8 0
-3 -8 0
3 9 23 0
-3 -9 -23 0
3 10 38 0
-3 -10 -38 0
4 8 9 0
-4 -8 -9 0
4 9 24 0
-4 -9 -24 0
4 10 39 0
-4 -10 -39 0
5 8 10 0
-5 -8 -10 0
5 9 25 0
-5 -9 -25 0
5 10 40 0
-5 -10 -40 0
6 8 11 0
-6 -8 -11 0
6 9 26 0
-6 -9 -26 0
6 10 41 0
-6 -10 -41 0
7 8 12 0
-7 -8 -12 0
7 9 27 0
-7 -9 -27 0
7 10 42 0
-7 -10 -42 0
8 13 0
-8 -13 0
8 9 28 0
-8 -9 -28 0
8 10 43 0
-8 -10 -43 0
8 9 14 0
-8 -9 -14 0
9 29 0
-9 -29 0
9 10 44 0
-9 -10 -44 0
8 10 15 0
-8 -10 -15 0
9 10 30 0
-9 -10 -30 0
10 45 0
-10 -45 0
1 7 11 0
-1 -7 -11 0
8 11 16 0
-8 -11 -16 0
9 11 31 0
-9 -11 -31 0
2 7 12 0
-2 -7 -12 0
8 12 17 0
-8 -12 -17 0
9 12 32 0
-9 -12 -32 0
3 7 13 0
-3 -7 -13 0
8 13 18 0
-8 -13 -18 0
9 13 33 0
-9 -13 -33 0
4 7 14 0
-4 -7 -14 0
8 14 19 0
-8 -14 -19 0
9 14 34 0
-9 -14 -34 0
5 7 15 0
-5 -7 -15 0
8 15 20 0
-8 -15 -20 0
9 15 35 0
-9 -15 -35 0
6 7 16 0
-6 -7 -16 0
8 16 21 0
-8 -16 -21 0
9 16 36 0
-9 -16 -36 0
7 17 0
-7 -17 0
8 17 22 0
-8 -17 -22 0
9 17 37 0
-9 -17 -37 0
7 8 18 0
-7 -8 -18 0
8 18 23 0
-8 -18 -23 0
9 18 38 0
-9 -18 -38 0
7 9 19 0
-7 -9 -19 0
8 19 24 0
-8 -19 -24 0
9 19 39 0
-9 -19 -39 0
7 10 20 0
-7 -10 -20 0
8 20 25 0
-8 -20 -25 0
9 20 40 0
-9 -20 -40 0
7 11 21 0
-7 -11 -21 0
8 21 26 0
-8 -21 -26 0
9 21 41 0
-9 -21 -41 0
7 12 22 0
-7 -12 -22 0
8 22 27 0
-8 -22 -27 0
9 22 42 0
-9 -22 -42 0
7 13 23 0
-7 -13 -23 0
8 23 28 0
-8 -23 -28 0
9 23 43 0
-9 -23 -43 0
7 14 24 0
-7 -14 -24 0
8 24 29 0
-8 -24 -29 0
9 24 44 0
-9 -24 -44 0
7 15 25 0
-7 -15 -25 0
8 25 30 0
-8 -25 -30 0
9 25 45 0
-9 -25 -45 0
1 6 26 0
-1 -6 -26 0
7 16 26 0
-7 -16 -26 0
8 26 31 0
-8 -26 -31 0
2 6 27 0
-2 -6 -27 0
7 17 27 0
-7 -17 -27 0
8 27 32 0
-8 -27 -32 0
3 6 28 0
-3 -6 -28 0
7 18 28 0
-7 -18 -28 0
8 28 33 0
-8 -28 -33 0
4 6 29 0
-4 -6 -29 0
7 19 29 0
-7 -19 -29 0
8 29 34 0
-8 -29 -34 0
5 6 30 0
-5 -6 -30 0
7 20 30 0
-7 -20 -30 0
8 30 35 0
-8 -30 -35 0
6 31 0
-6 -31 0
7 21 31 0
-7 -21 -31 0
8 31 36 0
-8 -31 -36 0
6 7 32 0
-6 -7 -32 0
7 22 32 0
-7 -22 -32 0
8 32 37 0
-8 -32 -37 0
6 8 33 0
-6 -8 -33 0
7 23 33 0
-7 -23 -33 0
8 33 38 0
-8 -33 -38 0
6 9 34 0
-6 -9 -34 0
7 24 34 0
-7 -24 -34 0
8 34 39 0
-8 -34 -39 0
6 10 35 0
-6 -10 -35 0
7 25 35 0
-7 -25 -35 0
8 35 40 0
-8 -35 -40 0
6 11 36 0
-6 -11 -36 0
7 26 36 0
-7 -26 -36 0
8 36 41 0
-8 -36 -41 0
6 12 37 0
-6 -12 -37 0
7 27 37 0
-7 -27 -37 0
8 37 42 0
-8 -37 -42 0
6 13 38 0
-6 -13 -38 0
7 28 38 0
-7 -28 -38 0
8 38 43 0
-8 -38 -43 0
6 14 39 0
-6 -14 -39 0
7 29 39 0
-7 -29 -39 0
8 39 44 0
-8 -39 -44 0
6 15 40 0
-6 -15 -40 0
7 30 40 0
-7 -30 -40 0
8 40 45 0
-8 -40 -45 0
1 5 41 0
-1 -5 -41 0
6 16 41 0
-6 -16 -41 0
7 31 41 0
-7 -31 -41 0
2 5 42 0
-2 -5 -42 0
6 17 42 0
-6 -17 -42 0
7 32 42 0
-7 -32 -42 0
3 5 43 0
-3 -5 -43 0
6 18 43 0
-6 -18 -43 0
7 33 43 0
-7 -33 -43 0
4 5 44 0
-4 -5 -44 0
6 19 44 0
-6 -19 -44 0
7 34 44 0
-7 -34 -44 0
5 45 0
-5 -45 0
6 20 45 0
-6 -20 -45 0
7 35 45 0
-7 -35 -45 0
