certificates/rado_a15_c115_N45.drat
-45 0
10 0
5 0
-40 0
-8 0
0
